
[EnchantExtendLimit]	ItemGrade	MaxEnchant
0	1	20
1	2	20
2	3	20
3	4	20
4	5	20
5	6	20
6	7	20
7	8	20
8	9	20
9	10	20
10	11	20
11	12	20
12	13	20
13	14	20

[EnchantExtend]	ItemType	Min_Grade	Max_Grade	Force_ID	Value	Value_Type	Apply_LV
0	1	1	4	3	6,0,0,1	1	16
1	1	1	4	4	7,0,0,1	1	16
2	1	1	4	6	16,0,0,1	1	16
3	1	5	7	3	10,0,0,1	1	16
4	1	5	7	4	11,0,0,1	1	16
5	1	5	7	6	18,0,0,1	1	16
6	1	8	10	3	14,1,5,1	1	16
7	1	8	10	4	15,1,5,1	1	16
8	1	8	10	6	24,2,0,1	1	16
9	1	11	13	3	17,1,10,1	1	16
10	1	11	13	4	18,1,10,1	1	16
11	1	11	13	6	44,2,0,1	1	16
12	1	14	16	3	18,1,10,1	1	16
13	1	14	16	4	19,1,10,1	1	16
14	1	14	16	6	64,2,10,1	1	16
15	2	1	4	3	7,0,0,1	1	16
16	2	1	4	4	6,0,0,1	1	16
17	2	1	4	6	16,0,0,1	1	16
18	2	5	7	3	11,0,0,1	1	16
19	2	5	7	4	10,0,0,1	1	16
20	2	5	7	6	18,0,0,1	1	16
21	2	8	10	3	15,1,5,1	1	16
22	2	8	10	4	14,1,5,1	1	16
23	2	8	10	6	24,2,0,1	1	16
24	2	11	13	3	18,1,10,1	1	16
25	2	11	13	4	17,1,10,1	1	16
26	2	11	13	6	44,2,0,1	1	16
27	2	14	16	3	19,1,10,1	1	16
28	2	14	16	4	18,1,10,1	1	16
29	2	14	16	6	64,2,10,1	1	16
30	3	1	4	23	14,0,0,1	1	16
31	3	1	4	24	12,0,0,1	1	16
32	3	1	4	26	32,0,0,1	1	16
33	3	5	7	23	22,0,0,1	1	16
34	3	5	7	24	20,0,0,1	1	16
35	3	5	7	26	36,0,0,1	1	16
36	3	8	10	23	30,2,10,1	1	16
37	3	8	10	24	28,2,10,1	1	16
38	3	8	10	26	48,4,0,1	1	16
39	3	11	13	23	36,2,20,1	1	16
40	3	11	13	24	34,2,20,1	1	16
41	3	11	13	26	88,4,0,1	1	16
42	3	14	16	23	38,2,20,1	1	16
43	3	14	16	24	36,2,20,1	1	16
44	3	14	16	26	128,4,20,1	1	16
45	4	1	4	5	7,0,0,1	1	16
46	4	1	4	7	7,0,0,1	1	16
47	4	5	7	5	11,0,0,1	1	16
48	4	5	7	7	8,0,0,1	1	16
49	4	8	10	5	15,1,5,1	1	16
50	4	8	10	7	12,1,0,1	1	16
51	4	8	10	74	1,0,0,1	1	16
52	4	11	13	5	18,1,10,1	1	16
53	4	11	13	7	15,1,0,1	1	16
54	4	11	13	74	2,0,0,1	1	16
55	4	14	16	5	19,1,10,1	1	16
56	4	14	16	7	16,1,0,1	1	16
57	4	14	16	74	3,0,0,1	1	16
58	5	1	4	5	7,0,0,1	1	16
59	5	1	4	7	7,0,0,1	1	16
60	5	5	7	5	11,0,0,1	1	16
61	5	5	7	7	8,0,0,1	1	16
62	5	8	10	5	15,1,5,1	1	16
63	5	8	10	7	12,1,0,1	1	16
64	5	8	10	74	1,0,0,1	1	16
65	5	11	13	5	18,1,10,1	1	16
66	5	11	13	7	15,1,0,1	1	16
67	5	11	13	74	2,0,0,1	1	16
68	5	14	16	5	19,1,10,1	1	16
69	5	14	16	7	16,1,0,1	1	16
70	5	14	16	74	3,0,0,1	1	16
71	6	1	4	5	7,0,0,1	1	16
72	6	1	4	7	7,0,0,1	1	16
73	6	5	7	5	11,0,0,1	1	16
74	6	5	7	7	8,0,0,1	1	16
75	6	8	10	5	15,1,5,1	1	16
76	6	8	10	7	12,1,0,1	1	16
77	6	8	10	74	1,0,0,1	1	16
78	6	11	13	5	18,1,10,1	1	16
79	6	11	13	7	15,1,0,1	1	16
80	6	11	13	74	2,0,0,1	1	16
81	6	14	16	5	19,1,10,1	1	16
82	6	14	16	7	16,1,0,1	1	16
83	6	14	16	74	3,0,0,1	1	16
84	7	1	4	5	7,0,0,1	1	16
85	7	1	4	7	7,0,0,1	1	16
86	7	5	7	5	11,0,0,1	1	16
87	7	5	7	7	8,0,0,1	1	16
88	7	8	10	5	15,1,5,1	1	16
89	7	8	10	7	12,1,0,1	1	16
90	7	8	10	74	1,0,0,1	1	16
91	7	11	13	5	18,1,10,1	1	16
92	7	11	13	7	15,1,0,1	1	16
93	7	11	13	74	2,0,0,1	1	16
94	7	14	16	5	19,1,10,1	1	16
95	7	14	16	7	16,1,0,1	1	16
96	7	14	16	74	3,0,0,1	1	16
97	22	4	5	5	11,0,0,1	1	16
98	22	4	5	7	60,0,0,1	1	16
99	22	4	5	80	1,0,0,1	1	16
100	22	7	8	5	17,0,5,1	1	16
101	22	7	8	7	70,0,0,1	1	16
102	22	7	8	80	2,0,0,1	1	16
103	22	11	13	5	23,1,10,1	1	16
104	22	11	13	7	80,1,0,1	1	16
105	22	11	13	80	3,0,0,1	1	16
106	22	14	16	5	37,1,10,1	1	16
107	22	14	16	7	95,1,5,1	1	16
108	22	14	16	80	4,0,0,1	1	16
109	131	1	4	3	7,0,0,1	1	16
110	131	1	4	4	6,0,0,1	1	16
111	131	1	4	6	16,0,0,1	1	16
112	131	5	7	3	11,0,0,1	1	16
113	131	5	7	4	10,0,0,1	1	16
114	131	5	7	6	18,0,0,1	1	16
115	131	8	10	3	15,1,5,1	1	16
116	131	8	10	4	14,1,5,1	1	16
117	131	8	10	6	24,2,0,1	1	16
118	131	11	13	3	18,1,10,1	1	16
119	131	11	13	4	17,1,10,1	1	16
120	131	11	13	6	44,2,0,1	1	16
121	131	14	16	3	19,1,10,1	1	16
122	131	14	16	4	18,1,10,1	1	16
123	131	14	16	6	64,2,10,1	1	16

[EnchantExtendRate]	Level	PerfectCoreNeeds	CoreNeeds	EnhancedNeeds	SuperiorNeeds	Level1UpRate	Level2UpRate	CoreDeleteRate	Level1DownRate	Level2DownRate	Level3DownRate	EnhancedLevel1UpRate	EnhancedLevel2UpRate	EnhancedCoreDeleteRate	EnhancedLevel1DownRate	EnhancedLevel2DownRate	EnhancedLevel3DownRate	SuperiorLevel1UpRate	SuperiorLevel2UpRate	SuperiorCoreDeleteRate	SuperiorLevel1DownRate	SuperiorLevel2DownRate	SuperiorLevel3DownRate	EnchantPoint
0	15	3	20	10	10	350	0	650	0	0	0	40	0	-40	0	0	0	15	40	-55	0	0	0	1000
1	16	3	30	15	15	300	0	350	350	0	0	26	0	-20	-6	0	0	13	20	-13	-20	0	0	1050
2	17	3	40	20	20	200	0	200	200	400	0	12	0	-10	18	-20	0	8	5	0	7	-20	0	1100
3	18	3	50	25	25	100	0	50	100	250	500	6	0	-2	26	-10	-20	4	2	10	14	-10	-20	1150
4	19	3	60	30	30	50	0	0	50	300	600	5	0	0	25	-10	-20	0	0	0	0	0	0	1200

[EnchantBuffer]	Level	Core_buffer	Enhanced_buffer	Superior_buffer
0	1	0	0	0
1	2	0	0	0
2	3	1	0	0
3	4	1	0	0
4	5	1	0	0
5	6	1	1	1
6	7	1	1	1
7	8	1	1	1
8	9	1	1	1
9	10	1	1	1
10	11	1	1	1
11	12	1	1	1
12	13	1	1	1
13	14	1	1	1
14	15	0	0	0
15	16	2	2	2
16	17	3	3	3
17	18	4	4	4
18	19	5	5	5

[EventEnchantRate]	Level	CoreNeeds	Level1UpRate	Level2UpRate	CoreDeleteRate	Level1DownRate	Level2DownRate	ItemDeleteRate	EnhancedLevel1UpRate	EnhancedLevel2UpRate	EnhancedCoreDeleteRate	EnhancedLevel1DownRate	EnhancedLevel2DownRate	EnhancedItemDeleteRate	SuperiorLevel1UpRate	SuperiorLevel2UpRate	SuperiorCoreDeleteRate	SuperiorLevel1DownRate	SuperiorLevel2DownRate	SuperiorItemDeleteRate	EnchantPoint
0	0	1	1000	0	0	0	0	0	-1000	1000	0	0	0	0	-1000	1000	0	0	0	0	0
1	1	1	1000	0	0	0	0	0	-1000	1000	0	0	0	0	-1000	1000	0	0	0	0	100
2	2	1	950	0	0	50	0	0	0	0	50	-50	0	0	-550	550	0	0	0	0	200
3	3	2	900	0	50	50	0	0	25	0	0	-25	0	0	-200	225	-25	0	0	0	300
4	4	2	800	0	100	100	0	0	50	0	0	-50	0	0	-175	225	-50	0	0	0	400
5	5	2	700	0	200	100	0	0	25	0	25	-50	0	0	-100	200	-100	0	0	0	500
6	6	3	600	0	249	151	0	0	10	0	25	-35	0	0	0	83	-83	0	0	0	600
7	7	3	600	0	249	151	0	0	10	0	25	-35	0	0	0	83	-83	0	0	0	700
8	8	3	330	0	0	370	150	150	10	0	110	-35	-50	-35	0	75	15	-50	-15	-25	800
9	9	4	330	0	0	372	148	150	5	0	80	-23	-37	-25	0	55	10	-35	-15	-15	900
10	10	4	300	0	0	250	300	150	5	0	70	15	-75	-15	0	50	10	-5	-45	-10	1000
11	11	4	300	0	0	250	300	150	5	0	70	15	-75	-15	0	50	10	-5	-45	-10	1100
12	12	5	260	0	0	220	320	200	4	0	44	36	-64	-20	0	20	8	6	-24	-10	1200
13	13	5	260	0	0	220	320	200	4	0	44	36	-64	-20	0	20	8	6	-24	-10	1300
14	14	5	260	0	0	220	320	200	4	0	44	36	-64	-20	5	0	23	6	-24	-10	1400
15	15	20	350	0	650	0	0	0	20	0	-20	0	0	0	7	20	-27	0	0	0	1000
16	16	30	300	0	350	350	0	0	13	0	-10	-3	0	0	6	10	-6	-10	0	0	1050
17	17	40	200	0	200	200	400	0	6	0	-5	9	-10	0	4	3	0	3	-10	0	1100

